** Semiconductor package FEM benchmark — SI units (m, N, Pa, W, K)
** Portfolio benchmark only; material values are representative educational assumptions.
*NODE
1, 0, 0, 0
2, 0.0025, 0, 0
3, 0.005, 0, 0
4, 0.0075, 0, 0
5, 0.01, 0, 0
6, 0, 0.0025, 0
7, 0.0025, 0.0025, 0
8, 0.005, 0.0025, 0
9, 0.0075, 0.0025, 0
10, 0.01, 0.0025, 0
11, 0, 0.005, 0
12, 0.0025, 0.005, 0
13, 0.005, 0.005, 0
14, 0.0075, 0.005, 0
15, 0.01, 0.005, 0
16, 0, 0.0075, 0
17, 0.0025, 0.0075, 0
18, 0.005, 0.0075, 0
19, 0.0075, 0.0075, 0
20, 0.01, 0.0075, 0
21, 0, 0.01, 0
22, 0.0025, 0.01, 0
23, 0.005, 0.01, 0
24, 0.0075, 0.01, 0
25, 0.01, 0.01, 0
26, 0, 0, 0.00012
27, 0.0025, 0, 0.00012
28, 0.005, 0, 0.00012
29, 0.0075, 0, 0.00012
30, 0.01, 0, 0.00012
31, 0, 0.0025, 0.00012
32, 0.0025, 0.0025, 0.00012
33, 0.005, 0.0025, 0.00012
34, 0.0075, 0.0025, 0.00012
35, 0.01, 0.0025, 0.00012
36, 0, 0.005, 0.00012
37, 0.0025, 0.005, 0.00012
38, 0.005, 0.005, 0.00012
39, 0.0075, 0.005, 0.00012
40, 0.01, 0.005, 0.00012
41, 0, 0.0075, 0.00012
42, 0.0025, 0.0075, 0.00012
43, 0.005, 0.0075, 0.00012
44, 0.0075, 0.0075, 0.00012
45, 0.01, 0.0075, 0.00012
46, 0, 0.01, 0.00012
47, 0.0025, 0.01, 0.00012
48, 0.005, 0.01, 0.00012
49, 0.0075, 0.01, 0.00012
50, 0.01, 0.01, 0.00012
51, 0, 0, 0.00052
52, 0.0025, 0, 0.00052
53, 0.005, 0, 0.00052
54, 0.0075, 0, 0.00052
55, 0.01, 0, 0.00052
56, 0, 0.0025, 0.00052
57, 0.0025, 0.0025, 0.00052
58, 0.005, 0.0025, 0.00052
59, 0.0075, 0.0025, 0.00052
60, 0.01, 0.0025, 0.00052
61, 0, 0.005, 0.00052
62, 0.0025, 0.005, 0.00052
63, 0.005, 0.005, 0.00052
64, 0.0075, 0.005, 0.00052
65, 0.01, 0.005, 0.00052
66, 0, 0.0075, 0.00052
67, 0.0025, 0.0075, 0.00052
68, 0.005, 0.0075, 0.00052
69, 0.0075, 0.0075, 0.00052
70, 0.01, 0.0075, 0.00052
71, 0, 0.01, 0.00052
72, 0.0025, 0.01, 0.00052
73, 0.005, 0.01, 0.00052
74, 0.0075, 0.01, 0.00052
75, 0.01, 0.01, 0.00052
76, 0, 0, 0.00092
77, 0.0025, 0, 0.00092
78, 0.005, 0, 0.00092
79, 0.0075, 0, 0.00092
80, 0.01, 0, 0.00092
81, 0, 0.0025, 0.00092
82, 0.0025, 0.0025, 0.00092
83, 0.005, 0.0025, 0.00092
84, 0.0075, 0.0025, 0.00092
85, 0.01, 0.0025, 0.00092
86, 0, 0.005, 0.00092
87, 0.0025, 0.005, 0.00092
88, 0.005, 0.005, 0.00092
89, 0.0075, 0.005, 0.00092
90, 0.01, 0.005, 0.00092
91, 0, 0.0075, 0.00092
92, 0.0025, 0.0075, 0.00092
93, 0.005, 0.0075, 0.00092
94, 0.0075, 0.0075, 0.00092
95, 0.01, 0.0075, 0.00092
96, 0, 0.01, 0.00092
97, 0.0025, 0.01, 0.00092
98, 0.005, 0.01, 0.00092
99, 0.0075, 0.01, 0.00092
100, 0.01, 0.01, 0.00092
101, 0, 0, 0.00117
102, 0.0025, 0, 0.00117
103, 0.005, 0, 0.00117
104, 0.0075, 0, 0.00117
105, 0.01, 0, 0.00117
106, 0, 0.0025, 0.00117
107, 0.0025, 0.0025, 0.00117
108, 0.005, 0.0025, 0.00117
109, 0.0075, 0.0025, 0.00117
110, 0.01, 0.0025, 0.00117
111, 0, 0.005, 0.00117
112, 0.0025, 0.005, 0.00117
113, 0.005, 0.005, 0.00117
114, 0.0075, 0.005, 0.00117
115, 0.01, 0.005, 0.00117
116, 0, 0.0075, 0.00117
117, 0.0025, 0.0075, 0.00117
118, 0.005, 0.0075, 0.00117
119, 0.0075, 0.0075, 0.00117
120, 0.01, 0.0075, 0.00117
121, 0, 0.01, 0.00117
122, 0.0025, 0.01, 0.00117
123, 0.005, 0.01, 0.00117
124, 0.0075, 0.01, 0.00117
125, 0.01, 0.01, 0.00117
126, 0, 0, 0.001495
127, 0.0025, 0, 0.001495
128, 0.005, 0, 0.001495
129, 0.0075, 0, 0.001495
130, 0.01, 0, 0.001495
131, 0, 0.0025, 0.001495
132, 0.0025, 0.0025, 0.001495
133, 0.005, 0.0025, 0.001495
134, 0.0075, 0.0025, 0.001495
135, 0.01, 0.0025, 0.001495
136, 0, 0.005, 0.001495
137, 0.0025, 0.005, 0.001495
138, 0.005, 0.005, 0.001495
139, 0.0075, 0.005, 0.001495
140, 0.01, 0.005, 0.001495
141, 0, 0.0075, 0.001495
142, 0.0025, 0.0075, 0.001495
143, 0.005, 0.0075, 0.001495
144, 0.0075, 0.0075, 0.001495
145, 0.01, 0.0075, 0.001495
146, 0, 0.01, 0.001495
147, 0.0025, 0.01, 0.001495
148, 0.005, 0.01, 0.001495
149, 0.0075, 0.01, 0.001495
150, 0.01, 0.01, 0.001495
151, 0, 0, 0.00182
152, 0.0025, 0, 0.00182
153, 0.005, 0, 0.00182
154, 0.0075, 0, 0.00182
155, 0.01, 0, 0.00182
156, 0, 0.0025, 0.00182
157, 0.0025, 0.0025, 0.00182
158, 0.005, 0.0025, 0.00182
159, 0.0075, 0.0025, 0.00182
160, 0.01, 0.0025, 0.00182
161, 0, 0.005, 0.00182
162, 0.0025, 0.005, 0.00182
163, 0.005, 0.005, 0.00182
164, 0.0075, 0.005, 0.00182
165, 0.01, 0.005, 0.00182
166, 0, 0.0075, 0.00182
167, 0.0025, 0.0075, 0.00182
168, 0.005, 0.0075, 0.00182
169, 0.0075, 0.0075, 0.00182
170, 0.01, 0.0075, 0.00182
171, 0, 0.01, 0.00182
172, 0.0025, 0.01, 0.00182
173, 0.005, 0.01, 0.00182
174, 0.0075, 0.01, 0.00182
175, 0.01, 0.01, 0.00182
*ELEMENT, TYPE=C3D8, ELSET=ALL_ELEMENTS
1, 1, 2, 7, 6, 26, 27, 32, 31
2, 2, 3, 8, 7, 27, 28, 33, 32
3, 3, 4, 9, 8, 28, 29, 34, 33
4, 4, 5, 10, 9, 29, 30, 35, 34
5, 6, 7, 12, 11, 31, 32, 37, 36
6, 7, 8, 13, 12, 32, 33, 38, 37
7, 8, 9, 14, 13, 33, 34, 39, 38
8, 9, 10, 15, 14, 34, 35, 40, 39
9, 11, 12, 17, 16, 36, 37, 42, 41
10, 12, 13, 18, 17, 37, 38, 43, 42
11, 13, 14, 19, 18, 38, 39, 44, 43
12, 14, 15, 20, 19, 39, 40, 45, 44
13, 16, 17, 22, 21, 41, 42, 47, 46
14, 17, 18, 23, 22, 42, 43, 48, 47
15, 18, 19, 24, 23, 43, 44, 49, 48
16, 19, 20, 25, 24, 44, 45, 50, 49
17, 26, 27, 32, 31, 51, 52, 57, 56
18, 27, 28, 33, 32, 52, 53, 58, 57
19, 28, 29, 34, 33, 53, 54, 59, 58
20, 29, 30, 35, 34, 54, 55, 60, 59
21, 31, 32, 37, 36, 56, 57, 62, 61
22, 32, 33, 38, 37, 57, 58, 63, 62
23, 33, 34, 39, 38, 58, 59, 64, 63
24, 34, 35, 40, 39, 59, 60, 65, 64
25, 36, 37, 42, 41, 61, 62, 67, 66
26, 37, 38, 43, 42, 62, 63, 68, 67
27, 38, 39, 44, 43, 63, 64, 69, 68
28, 39, 40, 45, 44, 64, 65, 70, 69
29, 41, 42, 47, 46, 66, 67, 72, 71
30, 42, 43, 48, 47, 67, 68, 73, 72
31, 43, 44, 49, 48, 68, 69, 74, 73
32, 44, 45, 50, 49, 69, 70, 75, 74
33, 51, 52, 57, 56, 76, 77, 82, 81
34, 52, 53, 58, 57, 77, 78, 83, 82
35, 53, 54, 59, 58, 78, 79, 84, 83
36, 54, 55, 60, 59, 79, 80, 85, 84
37, 56, 57, 62, 61, 81, 82, 87, 86
38, 57, 58, 63, 62, 82, 83, 88, 87
39, 58, 59, 64, 63, 83, 84, 89, 88
40, 59, 60, 65, 64, 84, 85, 90, 89
41, 61, 62, 67, 66, 86, 87, 92, 91
42, 62, 63, 68, 67, 87, 88, 93, 92
43, 63, 64, 69, 68, 88, 89, 94, 93
44, 64, 65, 70, 69, 89, 90, 95, 94
45, 66, 67, 72, 71, 91, 92, 97, 96
46, 67, 68, 73, 72, 92, 93, 98, 97
47, 68, 69, 74, 73, 93, 94, 99, 98
48, 69, 70, 75, 74, 94, 95, 100, 99
49, 76, 77, 82, 81, 101, 102, 107, 106
50, 77, 78, 83, 82, 102, 103, 108, 107
51, 78, 79, 84, 83, 103, 104, 109, 108
52, 79, 80, 85, 84, 104, 105, 110, 109
53, 81, 82, 87, 86, 106, 107, 112, 111
54, 82, 83, 88, 87, 107, 108, 113, 112
55, 83, 84, 89, 88, 108, 109, 114, 113
56, 84, 85, 90, 89, 109, 110, 115, 114
57, 86, 87, 92, 91, 111, 112, 117, 116
58, 87, 88, 93, 92, 112, 113, 118, 117
59, 88, 89, 94, 93, 113, 114, 119, 118
60, 89, 90, 95, 94, 114, 115, 120, 119
61, 91, 92, 97, 96, 116, 117, 122, 121
62, 92, 93, 98, 97, 117, 118, 123, 122
63, 93, 94, 99, 98, 118, 119, 124, 123
64, 94, 95, 100, 99, 119, 120, 125, 124
65, 101, 102, 107, 106, 126, 127, 132, 131
66, 102, 103, 108, 107, 127, 128, 133, 132
67, 103, 104, 109, 108, 128, 129, 134, 133
68, 104, 105, 110, 109, 129, 130, 135, 134
69, 106, 107, 112, 111, 131, 132, 137, 136
70, 107, 108, 113, 112, 132, 133, 138, 137
71, 108, 109, 114, 113, 133, 134, 139, 138
72, 109, 110, 115, 114, 134, 135, 140, 139
73, 111, 112, 117, 116, 136, 137, 142, 141
74, 112, 113, 118, 117, 137, 138, 143, 142
75, 113, 114, 119, 118, 138, 139, 144, 143
76, 114, 115, 120, 119, 139, 140, 145, 144
77, 116, 117, 122, 121, 141, 142, 147, 146
78, 117, 118, 123, 122, 142, 143, 148, 147
79, 118, 119, 124, 123, 143, 144, 149, 148
80, 119, 120, 125, 124, 144, 145, 150, 149
81, 126, 127, 132, 131, 151, 152, 157, 156
82, 127, 128, 133, 132, 152, 153, 158, 157
83, 128, 129, 134, 133, 153, 154, 159, 158
84, 129, 130, 135, 134, 154, 155, 160, 159
85, 131, 132, 137, 136, 156, 157, 162, 161
86, 132, 133, 138, 137, 157, 158, 163, 162
87, 133, 134, 139, 138, 158, 159, 164, 163
88, 134, 135, 140, 139, 159, 160, 165, 164
89, 136, 137, 142, 141, 161, 162, 167, 166
90, 137, 138, 143, 142, 162, 163, 168, 167
91, 138, 139, 144, 143, 163, 164, 169, 168
92, 139, 140, 145, 144, 164, 165, 170, 169
93, 141, 142, 147, 146, 166, 167, 172, 171
94, 142, 143, 148, 147, 167, 168, 173, 172
95, 143, 144, 149, 148, 168, 169, 174, 173
96, 144, 145, 150, 149, 169, 170, 175, 174
*ELSET, ELSET=SOLDER_ZONE
1, 2, 3, 4, 5, 6, 7, 8, 9, 10, 11, 12
13, 14, 15, 16
*ELSET, ELSET=SUBSTRATE
17, 18, 19, 20, 21, 22, 23, 24, 25, 26, 27, 28
29, 30, 31, 32, 33, 34, 35, 36, 37, 38, 39, 40
41, 42, 43, 44, 45, 46, 47, 48
*ELSET, ELSET=DIE
49, 50, 51, 52, 53, 54, 55, 56, 57, 58, 59, 60
61, 62, 63, 64
*ELSET, ELSET=MOLD
65, 66, 67, 68, 69, 70, 71, 72, 73, 74, 75, 76
77, 78, 79, 80, 81, 82, 83, 84, 85, 86, 87, 88
89, 90, 91, 92, 93, 94, 95, 96
** Material provenance: Representative open engineering handbook value — Educational FR-4 approximation; not a vendor datasheet or IPC requirement.
*MATERIAL, NAME=FR4
*ELASTIC
2.2e+10, 0.28
*EXPANSION
1.6e-05
*CONDUCTIVITY
0.3
** Material provenance: Representative open engineering handbook value — Educational silicon approximation for portfolio benchmark only.
*MATERIAL, NAME=SILICON
*ELASTIC
1.3e+11, 0.28
*EXPANSION
2.6e-06
*CONDUCTIVITY
130
** Material provenance: Representative open engineering handbook value — Educational mold-compound approximation; not proprietary package data.
*MATERIAL, NAME=MOLD
*ELASTIC
1.8e+10, 0.35
*EXPANSION
1.2e-05
*CONDUCTIVITY
0.7
** Material provenance: Representative open engineering handbook value — Lumped interconnect/support layer for benchmark simplification.
*MATERIAL, NAME=SOLDER
*ELASTIC
3.5e+10, 0.36
*EXPANSION
2.2e-05
*CONDUCTIVITY
50
*SOLID SECTION, ELSET=SOLDER_ZONE, MATERIAL=SOLDER

*SOLID SECTION, ELSET=SUBSTRATE, MATERIAL=FR4

*SOLID SECTION, ELSET=DIE, MATERIAL=SILICON

*SOLID SECTION, ELSET=MOLD, MATERIAL=MOLD

*NSET, NSET=ALLNODES
1, 2, 3, 4, 5, 6, 7, 8, 9, 10, 11, 12
13, 14, 15, 16, 17, 18, 19, 20, 21, 22, 23, 24
25, 26, 27, 28, 29, 30, 31, 32, 33, 34, 35, 36
37, 38, 39, 40, 41, 42, 43, 44, 45, 46, 47, 48
49, 50, 51, 52, 53, 54, 55, 56, 57, 58, 59, 60
61, 62, 63, 64, 65, 66, 67, 68, 69, 70, 71, 72
73, 74, 75, 76, 77, 78, 79, 80, 81, 82, 83, 84
85, 86, 87, 88, 89, 90, 91, 92, 93, 94, 95, 96
97, 98, 99, 100, 101, 102, 103, 104, 105, 106, 107, 108
109, 110, 111, 112, 113, 114, 115, 116, 117, 118, 119, 120
121, 122, 123, 124, 125, 126, 127, 128, 129, 130, 131, 132
133, 134, 135, 136, 137, 138, 139, 140, 141, 142, 143, 144
145, 146, 147, 148, 149, 150, 151, 152, 153, 154, 155, 156
157, 158, 159, 160, 161, 162, 163, 164, 165, 166, 167, 168
169, 170, 171, 172, 173, 174, 175
*NSET, NSET=BOTTOM
1, 2, 3, 4, 5, 6, 7, 8, 9, 10, 11, 12
13, 14, 15, 16, 17, 18, 19, 20, 21, 22, 23, 24
25
*NSET, NSET=TOP
151, 152, 153, 154, 155, 156, 157, 158, 159, 160, 161, 162
163, 164, 165, 166, 167, 168, 169, 170, 171, 172, 173, 174
175
*INITIAL CONDITIONS, TYPE=TEMPERATURE
ALLNODES, 25.000
*STEP
*STATIC
** Thermo-mechanical temperatures use the same power-based 1D thermal-resistance profile as the analytical summary.
*TEMPERATURE
1, 25.000000
2, 25.000000
3, 25.000000
4, 25.000000
5, 25.000000
6, 25.000000
7, 25.000000
8, 25.000000
9, 25.000000
10, 25.000000
11, 25.000000
12, 25.000000
13, 25.000000
14, 25.000000
15, 25.000000
16, 25.000000
17, 25.000000
18, 25.000000
19, 25.000000
20, 25.000000
21, 25.000000
22, 25.000000
23, 25.000000
24, 25.000000
25, 25.000000
26, 25.048000
27, 25.048000
28, 25.048000
29, 25.048000
30, 25.048000
31, 25.048000
32, 25.048000
33, 25.048000
34, 25.048000
35, 25.048000
36, 25.048000
37, 25.048000
38, 25.048000
39, 25.048000
40, 25.048000
41, 25.048000
42, 25.048000
43, 25.048000
44, 25.048000
45, 25.048000
46, 25.048000
47, 25.048000
48, 25.048000
49, 25.048000
50, 25.048000
51, 51.714667
52, 51.714667
53, 51.714667
54, 51.714667
55, 51.714667
56, 51.714667
57, 51.714667
58, 51.714667
59, 51.714667
60, 51.714667
61, 51.714667
62, 51.714667
63, 51.714667
64, 51.714667
65, 51.714667
66, 51.714667
67, 51.714667
68, 51.714667
69, 51.714667
70, 51.714667
71, 51.714667
72, 51.714667
73, 51.714667
74, 51.714667
75, 51.714667
76, 78.381333
77, 78.381333
78, 78.381333
79, 78.381333
80, 78.381333
81, 78.381333
82, 78.381333
83, 78.381333
84, 78.381333
85, 78.381333
86, 78.381333
87, 78.381333
88, 78.381333
89, 78.381333
90, 78.381333
91, 78.381333
92, 78.381333
93, 78.381333
94, 78.381333
95, 78.381333
96, 78.381333
97, 78.381333
98, 78.381333
99, 78.381333
100, 78.381333
101, 78.419795
102, 78.419795
103, 78.419795
104, 78.419795
105, 78.419795
106, 78.419795
107, 78.419795
108, 78.419795
109, 78.419795
110, 78.419795
111, 78.419795
112, 78.419795
113, 78.419795
114, 78.419795
115, 78.419795
116, 78.419795
117, 78.419795
118, 78.419795
119, 78.419795
120, 78.419795
121, 78.419795
122, 78.419795
123, 78.419795
124, 78.419795
125, 78.419795
126, 87.705509
127, 87.705509
128, 87.705509
129, 87.705509
130, 87.705509
131, 87.705509
132, 87.705509
133, 87.705509
134, 87.705509
135, 87.705509
136, 87.705509
137, 87.705509
138, 87.705509
139, 87.705509
140, 87.705509
141, 87.705509
142, 87.705509
143, 87.705509
144, 87.705509
145, 87.705509
146, 87.705509
147, 87.705509
148, 87.705509
149, 87.705509
150, 87.705509
151, 96.991223
152, 96.991223
153, 96.991223
154, 96.991223
155, 96.991223
156, 96.991223
157, 96.991223
158, 96.991223
159, 96.991223
160, 96.991223
161, 96.991223
162, 96.991223
163, 96.991223
164, 96.991223
165, 96.991223
166, 96.991223
167, 96.991223
168, 96.991223
169, 96.991223
170, 96.991223
171, 96.991223
172, 96.991223
173, 96.991223
174, 96.991223
175, 96.991223
*BOUNDARY
BOTTOM, 1, 3, 0.0
*CLOAD
*NODE FILE
U
*EL FILE
S
*NODE PRINT, NSET=TOP
U
*EL PRINT, ELSET=ALL_ELEMENTS
S
*END STEP
